solution status: optimal solution found
objective value:                     185994.048755099
d11(0,0)                                            1 	(obj:0)
d11(1,1)                                            1 	(obj:0)
d11(1,2)                                            1 	(obj:0)
d11(2,3)                                            1 	(obj:0)
d11(2,4)                                            1 	(obj:0)
d11(2,5)                                            1 	(obj:0)
d11(3,7)                                            1 	(obj:0)
d11(3,8)                                            1 	(obj:0)
d11(3,9)                                            1 	(obj:0)
d11(3,10)                                           1 	(obj:0)
d11(3,11)                                           1 	(obj:0)
d11(3,12)                                           1 	(obj:0)
d11(3,13)                                           1 	(obj:0)
d11(4,15)                                           1 	(obj:0)
d11(4,17)                                           1 	(obj:0)
d11(4,19)                                           1 	(obj:0)
d11(4,21)                                           1 	(obj:0)
d11(4,23)                                           1 	(obj:0)
d11(4,25)                                           1 	(obj:0)
d11(4,27)                                           1 	(obj:0)
d11(4,29)                                           1 	(obj:0)
d12(4,16)                                           1 	(obj:0)
d12(4,18)                                           1 	(obj:0)
d12(4,20)                                           1 	(obj:0)
d12(4,22)                                           1 	(obj:0)
d12(4,24)                                           1 	(obj:0)
d12(4,26)                                           1 	(obj:0)
d12(4,28)                                           1 	(obj:0)
d12(4,30)                                           1 	(obj:0)
d21(3,7)                                            1 	(obj:0)
d21(4,15)                                           1 	(obj:0)
d21(4,16)                                           1 	(obj:0)
d21(4,17)                                           1 	(obj:0)
d21(4,18)                                           1 	(obj:0)
d21(4,19)                                           1 	(obj:0)
d21(4,20)                                           1 	(obj:0)
d21(4,23)                                           1 	(obj:0)
d21(4,24)                                           1 	(obj:0)
y2(4,16)                             658.348300040879 	(obj:0)
y2(4,18)                             658.348300040879 	(obj:0)
y2(4,20)                             658.348300040879 	(obj:0)
y2(4,22)                             658.348300040879 	(obj:0)
y2(4,24)                             658.348300040879 	(obj:0)
y2(4,26)                             658.348300040879 	(obj:0)
y2(4,28)                             658.348300040879 	(obj:0)
y2(4,30)                             658.348300040879 	(obj:0)
STE(1,1)                             5627.24989888882 	(obj:0)
STE(0,0)                                        11025 	(obj:0)
STE(1,2)                             7285.49979777757 	(obj:0)
STE(2,3)                                         3087 	(obj:0)
STE(2,4)                             4745.24989888882 	(obj:0)
STE(2,5)                             4745.24989888875 	(obj:0)
STE(2,6)                             6403.49979777757 	(obj:0)
STE(3,7)                             546.750101111183 	(obj:0)
STE(3,8)                                         2205 	(obj:0)
STE(3,9)                                         2205 	(obj:0)
STE(3,10)                            3863.24989888882 	(obj:0)
STE(3,11)                            2204.99999999994 	(obj:0)
STE(3,12)                            3863.24989888875 	(obj:0)
STE(3,13)                            3863.24989888875 	(obj:0)
STE(3,14)                            5521.49979777757 	(obj:0)
STE(4,15)                           -1111.49979777757 	(obj:0)
STE(4,16)                            290.180986150018 	(obj:0)
STE(4,17)                            546.750101111236 	(obj:0)
STE(4,18)                            1948.43088503884 	(obj:0)
STE(4,19)                            546.750101111269 	(obj:0)
STE(4,20)                            1948.43088503884 	(obj:0)
STE(4,21)                                        2205 	(obj:0)
STE(4,22)                            3606.68078392765 	(obj:0)
STE(4,23)                            546.750101111204 	(obj:0)
STE(4,24)                            1948.43088503877 	(obj:0)
STE(4,25)                                        2205 	(obj:0)
STE(4,26)                            3606.68078392759 	(obj:0)
STE(4,27)                                        2205 	(obj:0)
STE(4,28)                            3606.68078392759 	(obj:0)
STE(4,29)                            3863.24989888882 	(obj:0)
STE(4,30)                             5264.9306828164 	(obj:0)
y1(3,11)                             1492.42490899994 	(obj:0)
y1(3,13)                             1492.42490899994 	(obj:0)
y1(4,15)                             698.624908999876 	(obj:0)
y1(4,17)                             698.624908999888 	(obj:0)
y1(4,19)                             698.624908999858 	(obj:0)
y1(4,21)                             698.624908999936 	(obj:0)
y1(4,23)                             698.624908999858 	(obj:0)
y1(4,25)                             698.624908999876 	(obj:0)
y1(4,27)                             698.624908999876 	(obj:0)
y1(4,29)                             698.624908999876 	(obj:0)
WB(1)                                3265.91696791192 	(obj:0)
AVE(1)                               3265.91696791192 	(obj:0)
WB(2)                                3332.74178563731 	(obj:0)
AVE(2)                               3332.74178563731 	(obj:0)
AVE(3)                               3444.11697932125 	(obj:0)
WB(4)                                3399.56511093778 	(obj:0)
AVE(4)                               3399.56511093778 	(obj:0)
WG(3)                                3444.11697932115 	(obj:10)
BG(1)                                6820.52737857159 	(obj:10)
BG(2)                                4196.29249897959 	(obj:10)
BG(3)                                752.175519658414 	(obj:10)
BG(4)                                 3386.2924989795 	(obj:10)
y1(1,1)                              4064.17509100006 	(obj:0)
y1(1,2)                              2571.75018200019 	(obj:0)
y1(2,3)                              1492.42490899994 	(obj:0)
y1(2,5)                              1492.42490899994 	(obj:0)
y1(3,7)                              1492.42490899994 	(obj:0)
y1(3,9)                              1492.42490899994 	(obj:0)
